     Program PWSCF v.6.4.1 starts on 15Mar2023 at  6:38:26

     Waiting for input...
     Reading input from standard input

     Current dimensions of program PWSCF are:
     Max number of different atomic species (ntypx) = 10
     Max number of k-points (npk) =  40000
     Max angular momentum in pseudopotentials (lmaxx) =  3

     Subspace diagonalization in iterative solution of the eigenvalue problem:
     a serial algorithm will be used

     Message from routine setup:
     DEPRECATED: symmetry with ibrav=0, use correct ibrav instead

     bravais-lattice index     =            0
     lattice parameter (alat)  =       7.2741  a.u.
     unit-cell volume          =     272.1571 (a.u.)^3
     number of atoms/cell      =            2
     number of atomic types    =            1
     number of electrons       =         8.00
     number of Kohn-Sham states=            8
     kinetic-energy cutoff     =      30.0000  Ry
     charge density cutoff     =     240.0000  Ry
     convergence threshold     =      4.0E-10
     mixing beta               =       0.4000
     number of iterations used =            8  plain     mixing
     Exchange-correlation      = PBESOL ( 1  4 10  8 0 0)
     nstep                     =           50

     celldm(1)=   7.274083  celldm(2)=   0.000000  celldm(3)=   0.000000
     celldm(4)=   0.000000  celldm(5)=   0.000000  celldm(6)=   0.000000

     crystal axes: (cart. coord. in units of alat)
               a(1) = (  -0.707107  -0.707107   0.000000 )
               a(2) = (  -0.707107   0.000000  -0.707107 )
               a(3) = (  -0.000000  -0.707107  -0.707107 )

     reciprocal axes: (cart. coord. in units 2 pi/alat)
               b(1) = ( -0.707107 -0.707107  0.707107 )
               b(2) = ( -0.707107  0.707107 -0.707107 )
               b(3) = (  0.707107 -0.707107 -0.707107 )

     PseudoPot. # 1 for Si read from file:
     ./Si.pbesol-n-rrkjus_psl.1.0.0.UPF
     MD5 check sum: c4212819de858c94c3a1644338846ac9
     Pseudo is Ultrasoft + core correction, Zval =  4.0
     Generated using "atomic" code by A. Dal Corso v.6.0 svn rev. 13079
     Using radial grid of 1141 points,  6 beta functions with:
                l(1) =   0
                l(2) =   0
                l(3) =   1
                l(4) =   1
                l(5) =   2
                l(6) =   2
     Q(r) pseudized with 0 coefficients

     atomic species   valence    mass     pseudopotential
        Si             4.00    28.08550     Si( 1.00)

     48 Sym. Ops., with inversion, found (24 have fractional translation)

                                    s                        frac. trans.

      isym =  1     identity

 cryst.   s( 1) = (     1          0          0      )
                  (     0          1          0      )
                  (     0          0          1      )

 cart.    s( 1) = (  1.0000000  0.0000000  0.0000000 )
                  (  0.0000000  1.0000000  0.0000000 )
                  (  0.0000000  0.0000000  1.0000000 )

      isym =  2     180 deg rotation - cart. axis [0,0,1]

[...]

 cryst.   s( 5) = (     1          0          0      )    f =(  0.2500000 )
                  (     1         -1          0      )       (  0.2500000 )
                  (     1          0         -1      )       (  0.2500000 )

 cart.    s( 5) = (  0.0000000  1.0000000  0.0000000 )    f =( -0.3535534 )
                  (  1.0000000  0.0000000  0.0000000 )       ( -0.3535534 )
                  (  0.0000000  0.0000000 -1.0000000 )       ( -0.3535534 )

[...]

 cryst.   s(10) = (     0          0         -1      )    f =(  0.2500000 )
                  (     0         -1          0      )       (  0.2500000 )
                  (    -1          0          0      )       (  0.2500000 )

 cart.    s(10) = (  0.0000000  0.0000000 -1.0000000 )    f =( -0.3535534 )
                  (  0.0000000 -1.0000000  0.0000000 )       ( -0.3535534 )
                  ( -1.0000000  0.0000000  0.0000000 )       ( -0.3535534 )

[...]

 cryst.   s(17) = (     0          1          0      )
                  (     0          0          1      )
                  (     1          0          0      )

 cart.    s(17) = (  0.0000000  1.0000000  0.0000000 )
                  (  0.0000000  0.0000000  1.0000000 )
                  (  1.0000000  0.0000000  0.0000000 )

[...]

      isym = 25     inversion

[...]

      isym = 26     inv. 180 deg rotation - cart. axis [0,0,1]

[...]

   Cartesian axes

     site n.     atom                  positions (alat units)
         1           Si  tau(   1) = (  -1.0606602  -1.0606602  -1.0606602  )
         2           Si  tau(   2) = (  -0.0000000   0.0000000   0.0000000  )

   Crystallographic axes

     site n.     atom                  positions (cryst. coord.)
         1           Si  tau(   1) = (  0.7500000  0.7500000  0.7500000  )
         2           Si  tau(   2) = (  0.0000000  0.0000000 -0.0000000  )

     number of k points=    47  Marzari-Vanderbilt smearing, width (Ry)=  0.0147
                       cart. coord. in units 2pi/alat
        k(    1) = (   0.0000000   0.0000000   0.0000000), wk =   0.0020000
        k(    2) = (   0.0707107  -0.0707107  -0.0707107), wk =   0.0160000
        k(    3) = (   0.1414214  -0.1414214  -0.1414214), wk =   0.0160000
        k(    4) = (   0.2121320  -0.2121320  -0.2121320), wk =   0.0160000
        k(    5) = (   0.2828427  -0.2828427  -0.2828427), wk =   0.0160000
        k(    6) = (  -0.3535534   0.3535534   0.3535534), wk =   0.0080000
        k(    7) = (   0.0000000   0.0000000  -0.1414214), wk =   0.0120000
        k(    8) = (   0.0707107  -0.0707107  -0.2121320), wk =   0.0480000
        k(    9) = (   0.1414214  -0.1414214  -0.2828427), wk =   0.0480000
        k(   10) = (   0.2121320  -0.2121320  -0.3535534), wk =   0.0480000
        k(   11) = (  -0.4242641   0.4242641   0.2828427), wk =   0.0480000
        k(   12) = (  -0.3535534   0.3535534   0.2121320), wk =   0.0480000
        k(   13) = (  -0.2828427   0.2828427   0.1414214), wk =   0.0480000
        k(   14) = (  -0.2121320   0.2121320   0.0707107), wk =   0.0480000
        k(   15) = (  -0.1414214   0.1414214  -0.0000000), wk =   0.0240000
        k(   16) = (   0.0000000   0.0000000  -0.2828427), wk =   0.0120000
        k(   17) = (   0.0707107  -0.0707107  -0.3535534), wk =   0.0480000
        k(   18) = (   0.1414214  -0.1414214  -0.4242641), wk =   0.0480000
        k(   19) = (  -0.4949747   0.4949747   0.2121320), wk =   0.0480000
        k(   20) = (  -0.4242641   0.4242641   0.1414214), wk =   0.0480000
        k(   21) = (  -0.3535534   0.3535534   0.0707107), wk =   0.0480000
        k(   22) = (  -0.2828427   0.2828427  -0.0000000), wk =   0.0240000
        k(   23) = (   0.0000000   0.0000000  -0.4242641), wk =   0.0120000
        k(   24) = (   0.0707107  -0.0707107  -0.4949747), wk =   0.0480000
        k(   25) = (  -0.5656854   0.5656854   0.1414214), wk =   0.0480000
        k(   26) = (  -0.4949747   0.4949747   0.0707107), wk =   0.0480000
        k(   27) = (  -0.4242641   0.4242641   0.0000000), wk =   0.0240000
        k(   28) = (   0.0000000   0.0000000  -0.5656854), wk =   0.0120000
        k(   29) = (  -0.6363961   0.6363961   0.0707107), wk =   0.0480000
        k(   30) = (  -0.5656854   0.5656854   0.0000000), wk =   0.0240000
        k(   31) = (   0.0000000   0.0000000   0.7071068), wk =   0.0060000
        k(   32) = (  -0.0000000  -0.1414214  -0.2828427), wk =   0.0480000
        k(   33) = (   0.0707107  -0.2121320  -0.3535534), wk =   0.0960000
        k(   34) = (  -0.5656854   0.4242641   0.2828427), wk =   0.0960000
        k(   35) = (  -0.4949747   0.3535534   0.2121320), wk =   0.0480000
        k(   36) = (   0.0000000  -0.1414214  -0.4242641), wk =   0.0480000
        k(   37) = (  -0.6363961   0.4949747   0.2121320), wk =   0.0960000
        k(   38) = (  -0.5656854   0.4242641   0.1414214), wk =   0.0960000
        k(   39) = (  -0.4949747   0.3535534   0.0707107), wk =   0.0960000
        k(   40) = (  -0.4242641   0.2828427  -0.0000000), wk =   0.0480000
        k(   41) = (  -0.7071068   0.5656854   0.1414214), wk =   0.0480000
        k(   42) = (  -0.6363961   0.4949747   0.0707107), wk =   0.0960000
        k(   43) = (  -0.5656854   0.4242641   0.0000000), wk =   0.0480000
        k(   44) = (  -0.0000000  -0.1414214   0.7071068), wk =   0.0240000
        k(   45) = (  -0.7071068   0.4242641   0.1414214), wk =   0.0480000
        k(   46) = (  -0.6363961   0.3535534   0.0707107), wk =   0.0480000
        k(   47) = (  -0.0000000  -0.2828427   0.7071068), wk =   0.0240000

                       cryst. coord.
        k(    1) = (   0.0000000   0.0000000  -0.0000000), wk =   0.0020000
        k(    2) = (   0.0000000   0.0000000   0.1000000), wk =   0.0160000
        k(    3) = (   0.0000000   0.0000000   0.2000000), wk =   0.0160000
        k(    4) = (   0.0000000   0.0000000   0.3000000), wk =   0.0160000
        k(    5) = (   0.0000000   0.0000000   0.4000000), wk =   0.0160000
        k(    6) = (   0.0000000   0.0000000  -0.5000000), wk =   0.0080000
        k(    7) = (  -0.0000000   0.1000000   0.1000000), wk =   0.0120000
        k(    8) = (   0.0000000   0.1000000   0.2000000), wk =   0.0480000
        k(    9) = (   0.0000000   0.1000000   0.3000000), wk =   0.0480000
        k(   10) = (   0.0000000   0.1000000   0.4000000), wk =   0.0480000
        k(   11) = (   0.0000000   0.1000000  -0.5000000), wk =   0.0480000
        k(   12) = (   0.0000000   0.1000000  -0.4000000), wk =   0.0480000
        k(   13) = (   0.0000000   0.1000000  -0.3000000), wk =   0.0480000
        k(   14) = (   0.0000000   0.1000000  -0.2000000), wk =   0.0480000
        k(   15) = (   0.0000000   0.1000000  -0.1000000), wk =   0.0240000
        k(   16) = (  -0.0000000   0.2000000   0.2000000), wk =   0.0120000
        k(   17) = (   0.0000000   0.2000000   0.3000000), wk =   0.0480000
        k(   18) = (   0.0000000   0.2000000   0.4000000), wk =   0.0480000
        k(   19) = (   0.0000000   0.2000000  -0.5000000), wk =   0.0480000
        k(   20) = (   0.0000000   0.2000000  -0.4000000), wk =   0.0480000
        k(   21) = (   0.0000000   0.2000000  -0.3000000), wk =   0.0480000
        k(   22) = (   0.0000000   0.2000000  -0.2000000), wk =   0.0240000
        k(   23) = (  -0.0000000   0.3000000   0.3000000), wk =   0.0120000
        k(   24) = (   0.0000000   0.3000000   0.4000000), wk =   0.0480000
        k(   25) = (   0.0000000   0.3000000  -0.5000000), wk =   0.0480000
        k(   26) = (   0.0000000   0.3000000  -0.4000000), wk =   0.0480000
        k(   27) = (   0.0000000   0.3000000  -0.3000000), wk =   0.0240000
        k(   28) = (  -0.0000000   0.4000000   0.4000000), wk =   0.0120000
        k(   29) = (   0.0000000   0.4000000  -0.5000000), wk =   0.0480000
        k(   30) = (   0.0000000   0.4000000  -0.4000000), wk =   0.0240000
        k(   31) = (   0.0000000  -0.5000000  -0.5000000), wk =   0.0060000
        k(   32) = (   0.1000000   0.2000000   0.3000000), wk =   0.0480000
        k(   33) = (   0.1000000   0.2000000   0.4000000), wk =   0.0960000
[...]
     number of iterations used =            8  plain     mixing
     Exchange-correlation      = PBESOL ( 1  4 10  8 0 0)

     celldm(1)=   7.274083  celldm(2)=   0.000000  celldm(3)=   0.000000
     celldm(4)=   0.000000  celldm(5)=   0.000000  celldm(6)=   0.000000

     crystal axes: (cart. coord. in units of alat)
               a(1) = (  -0.705682  -0.705682  -0.000000 )
               a(2) = (  -0.705682  -0.000000  -0.705682 )
               a(3) = (  -0.000000  -0.705682  -0.705682 )

     reciprocal axes: (cart. coord. in units 2 pi/alat)
               b(1) = ( -0.708535 -0.708535  0.708535 )
               b(2) = ( -0.708535  0.708535 -0.708535 )
               b(3) = (  0.708535 -0.708535 -0.708535 )

     PseudoPot. # 1 for Si read from file:
     ./Si.pbesol-n-rrkjus_psl.1.0.0.UPF
     MD5 check sum: c4212819de858c94c3a1644338846ac9
     Pseudo is Ultrasoft + core correction, Zval =  4.0
     Generated using "atomic" code by A. Dal Corso v.6.0 svn rev. 13079
     Using radial grid of 1141 points,  6 beta functions with:
                l(1) =   0
                l(2) =   0
                l(3) =   1
                l(4) =   1
                l(5) =   2
                l(6) =   2
     Q(r) pseudized with 0 coefficients

     atomic species   valence    mass     pseudopotential
        Si             4.00    28.08550     Si( 1.00)

     48 Sym. Ops., with inversion, found (24 have fractional translation)

                                    s                        frac. trans.

      isym =  1     identity

[...]

 cryst.   s( 4) = (     0          1         -1      )
                  (     1          0         -1      )
                  (     0          0         -1      )

 cart.    s( 4) = (  1.0000000  0.0000000  0.0000000 )
                  (  0.0000000 -1.0000000  0.0000000 )
                  (  0.0000000  0.0000000 -1.0000000 )

[...]

 cryst.   s( 9) = (    -1          1          0      )    f =(  0.2500000 )
                  (     0          1          0      )       (  0.2500000 )
                  (     0          1         -1      )       (  0.2500000 )

 cart.    s( 9) = (  0.0000000  0.0000000  1.0000000 )    f =( -0.3528408 )
                  (  0.0000000 -1.0000000  0.0000000 )       ( -0.3528408 )
                  (  1.0000000  0.0000000  0.0000000 )       ( -0.3528408 )

[...]

      isym = 24     120 deg rotation - cart. axis [-1,-1,1]

[...]

      isym = 25     inversion

[...]

 cryst.   s(40) = (     0         -1          0      )
                  (     0         -1          1      )
                  (     1         -1          0      )

 cart.    s(40) = ( -1.0000000  0.0000000  0.0000000 )
                  (  0.0000000  0.0000000  1.0000000 )
                  (  0.0000000 -1.0000000  0.0000000 )

[...]

      isym = 48     inv. 120 deg rotation - cart. axis [-1,-1,1]

 cryst.   s(48) = (    -1          1          0      )    f =(  0.2500000 )
                  (     0          1         -1      )       (  0.2500000 )
                  (     0          1          0      )       (  0.2500000 )

 cart.    s(48) = (  0.0000000  0.0000000  1.0000000 )    f =( -0.3528408 )
                  ( -1.0000000  0.0000000  0.0000000 )       ( -0.3528408 )
                  (  0.0000000  1.0000000  0.0000000 )       ( -0.3528408 )

   Cartesian axes

     site n.     atom                  positions (alat units)
         1           Si  tau(   1) = (  -1.0585223  -1.0585223  -1.0585223  )
         2           Si  tau(   2) = (  -0.0000000   0.0000000   0.0000000  )

   Crystallographic axes

     site n.     atom                  positions (cryst. coord.)
         1           Si  tau(   1) = (  0.7500000  0.7500000  0.7500000  )
         2           Si  tau(   2) = (  0.0000000 -0.0000000 -0.0000000  )

     number of k points=    47  Marzari-Vanderbilt smearing, width (Ry)=  0.0147
                       cart. coord. in units 2pi/alat
        k(    1) = (   0.0000000   0.0000000   0.0000000), wk =   0.0020000
        k(    2) = (   0.0708535  -0.0708535  -0.0708535), wk =   0.0160000
        k(    3) = (   0.1417070  -0.1417070  -0.1417070), wk =   0.0160000
        k(    4) = (   0.2125605  -0.2125605  -0.2125605), wk =   0.0160000
        k(    5) = (   0.2834140  -0.2834140  -0.2834140), wk =   0.0160000
        k(    6) = (  -0.3542674   0.3542674   0.3542674), wk =   0.0080000
        k(    7) = (   0.0000000   0.0000000  -0.1417070), wk =   0.0120000
        k(    8) = (   0.0708535  -0.0708535  -0.2125605), wk =   0.0480000
        k(    9) = (   0.1417070  -0.1417070  -0.2834140), wk =   0.0480000
        k(   10) = (   0.2125605  -0.2125605  -0.3542674), wk =   0.0480000
        k(   11) = (  -0.4251209   0.4251209   0.2834140), wk =   0.0480000
        k(   12) = (  -0.3542674   0.3542674   0.2125605), wk =   0.0480000
        k(   13) = (  -0.2834140   0.2834140   0.1417070), wk =   0.0480000
        k(   14) = (  -0.2125605   0.2125605   0.0708535), wk =   0.0480000
        k(   15) = (  -0.1417070   0.1417070  -0.0000000), wk =   0.0240000
        k(   16) = (   0.0000000   0.0000000  -0.2834140), wk =   0.0120000
        k(   17) = (   0.0708535  -0.0708535  -0.3542674), wk =   0.0480000
        k(   18) = (   0.1417070  -0.1417070  -0.4251209), wk =   0.0480000
        k(   19) = (  -0.4959744   0.4959744   0.2125605), wk =   0.0480000
        k(   20) = (  -0.4251209   0.4251209   0.1417070), wk =   0.0480000
        k(   21) = (  -0.3542674   0.3542674   0.0708535), wk =   0.0480000
        k(   22) = (  -0.2834140   0.2834140  -0.0000000), wk =   0.0240000
        k(   23) = (   0.0000000   0.0000000  -0.4251209), wk =   0.0120000
        k(   24) = (   0.0708535  -0.0708535  -0.4959744), wk =   0.0480000
        k(   25) = (  -0.5668279   0.5668279   0.1417070), wk =   0.0480000
        k(   26) = (  -0.4959744   0.4959744   0.0708535), wk =   0.0480000
        k(   27) = (  -0.4251209   0.4251209   0.0000000), wk =   0.0240000
        k(   28) = (   0.0000000   0.0000000  -0.5668279), wk =   0.0120000
        k(   29) = (  -0.6376814   0.6376814   0.0708535), wk =   0.0480000
        k(   30) = (  -0.5668279   0.5668279   0.0000000), wk =   0.0240000
        k(   31) = (   0.0000000   0.0000000   0.7085349), wk =   0.0060000
        k(   32) = (   0.0000000  -0.1417070  -0.2834140), wk =   0.0480000
        k(   33) = (   0.0708535  -0.2125605  -0.3542674), wk =   0.0960000
        k(   34) = (  -0.5668279   0.4251209   0.2834140), wk =   0.0960000
        k(   35) = (  -0.4959744   0.3542674   0.2125605), wk =   0.0480000
        k(   36) = (   0.0000000  -0.1417070  -0.4251209), wk =   0.0480000
        k(   37) = (  -0.6376814   0.4959744   0.2125605), wk =   0.0960000
        k(   38) = (  -0.5668279   0.4251209   0.1417070), wk =   0.0960000
        k(   39) = (  -0.4959744   0.3542674   0.0708535), wk =   0.0960000
        k(   40) = (  -0.4251209   0.2834140   0.0000000), wk =   0.0480000
        k(   41) = (  -0.7085349   0.5668279   0.1417070), wk =   0.0480000
        k(   42) = (  -0.6376814   0.4959744   0.0708535), wk =   0.0960000
        k(   43) = (  -0.5668279   0.4251209   0.0000000), wk =   0.0480000
        k(   44) = (  -0.0000000  -0.1417070   0.7085349), wk =   0.0240000
        k(   45) = (  -0.7085349   0.4251209   0.1417070), wk =   0.0480000
        k(   46) = (  -0.6376814   0.3542674   0.0708535), wk =   0.0480000
        k(   47) = (  -0.0000000  -0.2834140   0.7085349), wk =   0.0240000

                       cryst. coord.
        k(    1) = (  -0.0000000  -0.0000000  -0.0000000), wk =   0.0020000
        k(    2) = (   0.0000000   0.0000000   0.1000000), wk =   0.0160000
        k(    3) = (   0.0000000   0.0000000   0.2000000), wk =   0.0160000
        k(    4) = (   0.0000000   0.0000000   0.3000000), wk =   0.0160000
        k(    5) = (   0.0000000   0.0000000   0.4000000), wk =   0.0160000
        k(    6) = (  -0.0000000   0.0000000  -0.5000000), wk =   0.0080000
        k(    7) = (   0.0000000   0.1000000   0.1000000), wk =   0.0120000
        k(    8) = (   0.0000000   0.1000000   0.2000000), wk =   0.0480000
        k(    9) = (   0.0000000   0.1000000   0.3000000), wk =   0.0480000
        k(   10) = (   0.0000000   0.1000000   0.4000000), wk =   0.0480000
        k(   11) = (  -0.0000000   0.1000000  -0.5000000), wk =   0.0480000
        k(   12) = (  -0.0000000   0.1000000  -0.4000000), wk =   0.0480000
        k(   13) = (  -0.0000000   0.1000000  -0.3000000), wk =   0.0480000
        k(   14) = (  -0.0000000   0.1000000  -0.2000000), wk =   0.0480000
        k(   15) = (   0.0000000   0.1000000  -0.1000000), wk =   0.0240000
        k(   16) = (   0.0000000   0.2000000   0.2000000), wk =   0.0120000
        k(   17) = (   0.0000000   0.2000000   0.3000000), wk =   0.0480000
        k(   18) = (   0.0000000   0.2000000   0.4000000), wk =   0.0480000
        k(   19) = (  -0.0000000   0.2000000  -0.5000000), wk =   0.0480000
        k(   20) = (  -0.0000000   0.2000000  -0.4000000), wk =   0.0480000
        k(   21) = (  -0.0000000   0.2000000  -0.3000000), wk =   0.0480000
        k(   22) = (   0.0000000   0.2000000  -0.2000000), wk =   0.0240000
        k(   23) = (   0.0000000   0.3000000   0.3000000), wk =   0.0120000
        k(   24) = (   0.0000000   0.3000000   0.4000000), wk =   0.0480000
        k(   25) = (  -0.0000000   0.3000000  -0.5000000), wk =   0.0480000
        k(   26) = (  -0.0000000   0.3000000  -0.4000000), wk =   0.0480000
        k(   27) = (  -0.0000000   0.3000000  -0.3000000), wk =   0.0240000
        k(   28) = (   0.0000000   0.4000000   0.4000000), wk =   0.0120000
        k(   29) = (  -0.0000000   0.4000000  -0.5000000), wk =   0.0480000
        k(   30) = (   0.0000000   0.4000000  -0.4000000), wk =   0.0240000
        k(   31) = (  -0.0000000  -0.5000000  -0.5000000), wk =   0.0060000
        k(   32) = (   0.1000000   0.2000000   0.3000000), wk =   0.0480000
        k(   33) = (   0.1000000   0.2000000   0.4000000), wk =   0.0960000
        k(   34) = (   0.1000000   0.2000000  -0.5000000), wk =   0.0960000
        k(   35) = (   0.1000000   0.2000000  -0.4000000), wk =   0.0480000
        k(   36) = (   0.1000000   0.3000000   0.4000000), wk =   0.0480000
        k(   37) = (   0.1000000   0.3000000  -0.5000000), wk =   0.0960000
        k(   38) = (   0.1000000   0.3000000  -0.4000000), wk =   0.0960000
        k(   39) = (   0.1000000   0.3000000  -0.3000000), wk =   0.0960000
        k(   40) = (   0.1000000   0.3000000  -0.2000000), wk =   0.0480000
        k(   41) = (   0.1000000   0.4000000  -0.5000000), wk =   0.0480000
        k(   42) = (   0.1000000   0.4000000  -0.4000000), wk =   0.0960000
        k(   43) = (   0.1000000   0.4000000  -0.3000000), wk =   0.0480000
        k(   44) = (   0.1000000  -0.5000000  -0.4000000), wk =   0.0240000
        k(   45) = (   0.2000000   0.4000000  -0.4000000), wk =   0.0480000
        k(   46) = (   0.2000000   0.4000000  -0.3000000), wk =   0.0480000
        k(   47) = (   0.2000000  -0.5000000  -0.3000000), wk =   0.0240000

     Initial potential from superposition of free atoms

     starting charge    7.99892, renormalised to    8.00000
     Starting wfcs are    8 randomized atomic wfcs

     Self-consistent Calculation

[...]

     total energy              =     -22.67757413 Ry
     Harris-Foulkes estimate   =     -22.67757413 Ry
     estimated scf accuracy    <          9.7E-12 Ry

     iteration # 10     ecut=    30.00 Ry     beta= 0.40
     Davidson diagonalization with overlap
     ethr =  1.21E-13,  avg # of iterations =  1.6

     End of self-consistent calculation

[...]

          k = 0.0000-0.1417-0.4251 (   750 PWs)   bands (ev):

[...]

          k =-0.0000-0.2834 0.7085 (   746 PWs)   bands (ev):

    -1.5311  -1.5311   2.3218   2.3218   9.4937   9.4937  12.0074  12.0074

     occupation numbers
     1.0000   1.0000   1.0000   1.0000   0.0000   0.0000   0.0000   0.0000

     the Fermi energy is     6.1713 ev

!    total energy              =     -22.67757413 Ry
     Harris-Foulkes estimate   =     -22.67757413 Ry
     estimated scf accuracy    <          1.4E-12 Ry

     The total energy is the sum of the following terms:

     one-electron contribution =       5.16905786 Ry
     hartree contribution      =       1.08066705 Ry
     xc contribution           =     -12.13690458 Ry
     ewald contribution        =     -16.79050166 Ry
     smearing contrib. (-TS)   =       0.00010720 Ry

     convergence has been achieved in  10 iterations

     Forces acting on atoms (cartesian axes, Ry/au):

     atom    1 type  1   force =     0.00000000    0.00000000    0.00000000
     atom    2 type  1   force =     0.00000000    0.00000000   -0.00000000
     The non-local contrib.  to forces
     atom    1 type  1   force =     0.00000000    0.00000000    0.00000000
     atom    2 type  1   force =     0.00000000    0.00000000    0.00000000
     The ionic contribution  to forces
     atom    1 type  1   force =    -0.00000000   -0.00000000   -0.00000000
     atom    2 type  1   force =     0.00000000    0.00000000    0.00000000
     The local contribution  to forces
     atom    1 type  1   force =     0.00000000    0.00000000    0.00000000
     atom    2 type  1   force =     0.00000000    0.00000000    0.00000000
     The core correction contribution to forces
     atom    1 type  1   force =     0.00000000   -0.00000000   -0.00000000
     atom    2 type  1   force =    -0.00000000   -0.00000000    0.00000000
     The Hubbard contrib.    to forces
     atom    1 type  1   force =     0.00000000    0.00000000    0.00000000
     atom    2 type  1   force =     0.00000000    0.00000000    0.00000000
     The SCF correction term to forces
     atom    1 type  1   force =     0.00000000    0.00000000    0.00000000
     atom    2 type  1   force =     0.00000000   -0.00000000    0.00000000

     Total force =     0.000000     Total SCF correction =     0.000000

     Computing stress (Cartesian axis) and pressure

          total   stress  (Ry/bohr**3)                   (kbar)     P=    0.01
   0.00000009  -0.00000000  -0.00000000          0.01     -0.00     -0.00
   0.00000000   0.00000009  -0.00000000          0.00      0.01     -0.00
  -0.00000000  -0.00000000   0.00000009         -0.00     -0.00      0.01

     kinetic stress (kbar)   2201.70     -0.00     -0.00
                               -0.00   2201.70      0.00
                               -0.00      0.00   2201.70

     local   stress (kbar)     39.91     -0.00     -0.00
                               -0.00     39.91     -0.00
                               -0.00     -0.00     39.91

     nonloc. stress (kbar)   1626.10      0.00      0.00
                                0.00   1626.10      0.00
                                0.00      0.00   1626.10

     hartree stress (kbar)    195.89      0.00      0.00
                                0.00    195.89      0.00
                                0.00      0.00    195.89

     exc-cor stress (kbar)   2906.64     -0.00     -0.00
                               -0.00   2906.64      0.00
                               -0.00      0.00   2906.64

     corecor stress (kbar)  -3926.69     -0.00     -0.00
                               -0.00  -3926.69      0.00
                               -0.00      0.00  -3926.69

     ewald   stress (kbar)  -3043.54      0.00      0.00
                                0.00  -3043.54      0.00
                                0.00      0.00  -3043.54

     hubbard stress (kbar)      0.00      0.00      0.00
                                0.00      0.00      0.00
                                0.00      0.00      0.00

     london  stress (kbar)      0.00      0.00      0.00
                                0.00      0.00      0.00
                                0.00      0.00      0.00

     DFT-D3  stress (kbar)      0.00      0.00      0.00
                                0.00      0.00      0.00
                                0.00      0.00      0.00

     XDM     stress (kbar)      0.00      0.00      0.00
                                0.00      0.00      0.00
                                0.00      0.00      0.00

     dft-nl  stress (kbar)      0.00      0.00      0.00
                                0.00      0.00      0.00
                                0.00      0.00      0.00

     TS-vdW  stress (kbar)      0.00      0.00      0.00
                                0.00      0.00      0.00
                                0.00      0.00      0.00

     Writing output data file Si.save/

     General routines

     Parallel routines

   This run was terminated on:   6:39:21  15Mar2023

   JOB DONE.